Set parameter Username
Academic license - for non-commercial use only - expires 2024-02-22
Warning: Gurobi version mismatch between Python 9.5.0 and C library 9.5.2
Set parameter TimeLimit to value 3600
Set parameter MIPGap to value 1e-06
Set parameter Threads to value 1
Gurobi Optimizer version 9.5.2 build v9.5.2rc0 (linux64)
Thread count: 4 physical cores, 4 logical processors, using up to 1 threads
Optimize a model with 4446 rows, 4342 columns and 18122 nonzeros
Model fingerprint: 0x32ab6bf7
Variable types: 4238 continuous, 104 integer (104 binary)
Coefficient statistics:
  Matrix range     [1e+00, 1e+02]
  Objective range  [2e-01, 2e+03]
  Bounds range     [1e+00, 1e+00]
  RHS range        [1e+01, 2e+02]
Presolve removed 129 rows and 76 columns
Presolve time: 0.02s
Presolved: 4317 rows, 4266 columns, 16718 nonzeros
Variable types: 4163 continuous, 103 integer (103 binary)
Found heuristic solution: objective 114400.00000

Root relaxation: objective 2.106067e+04, 4571 iterations, 0.26 seconds (0.32 work units)

    Nodes    |    Current Node    |     Objective Bounds      |     Work
 Expl Unexpl |  Obj  Depth IntInf | Incumbent    BestBd   Gap | It/Node Time

     0     0 21060.6683    0   65 114400.000 21060.6683  81.6%     -    0s
H    0     0                    51908.731137 21060.6683  59.4%     -    0s
H    0     0                    51503.553962 21060.6683  59.1%     -    0s
     0     0 21629.1011    0   59 51503.5540 21629.1011  58.0%     -    0s
H    0     0                    49963.921185 21629.1011  56.7%     -    0s
     0     0 21668.8360    0   58 49963.9212 21668.8360  56.6%     -    0s
     0     0 21668.9466    0   58 49963.9212 21668.9466  56.6%     -    0s
     0     0 22351.6478    0   60 49963.9212 22351.6478  55.3%     -    0s
H    0     0                    49101.878021 22351.6478  54.5%     -    0s
     0     0 23766.5257    0   63 49101.8780 23766.5257  51.6%     -    0s
     0     0 23788.9077    0   64 49101.8780 23788.9077  51.6%     -    0s
     0     0 23789.3615    0   67 49101.8780 23789.3615  51.6%     -    0s
     0     0 23899.8324    0   67 49101.8780 23899.8324  51.3%     -    0s
     0     0 23926.0113    0   65 49101.8780 23926.0113  51.3%     -    0s
     0     0 23932.8437    0   67 49101.8780 23932.8437  51.3%     -    0s
     0     0 23935.2266    0   67 49101.8780 23935.2266  51.3%     -    0s
     0     0 23935.3770    0   70 49101.8780 23935.3770  51.3%     -    0s
     0     0 24025.0912    0   68 49101.8780 24025.0912  51.1%     -    0s
     0     0 24036.2042    0   72 49101.8780 24036.2042  51.0%     -    0s
     0     0 24038.1797    0   72 49101.8780 24038.1797  51.0%     -    0s
     0     0 24109.1802    0   74 49101.8780 24109.1802  50.9%     -    0s
H    0     0                    48783.160160 24109.1802  50.6%     -    0s
     0     0 24117.4780    0   74 48783.1602 24117.4780  50.6%     -    0s
     0     0 24117.8779    0   73 48783.1602 24117.8779  50.6%     -    0s
     0     0 24208.3372    0   75 48783.1602 24208.3372  50.4%     -    0s
     0     0 24235.5555    0   75 48783.1602 24235.5555  50.3%     -    1s
     0     0 24236.2557    0   75 48783.1602 24236.2557  50.3%     -    1s
     0     0 24271.2059    0   78 48783.1602 24271.2059  50.2%     -    1s
H    0     0                    48008.550328 24271.2059  49.4%     -    1s
     0     0 24275.0248    0   78 48008.5503 24275.0248  49.4%     -    1s
     0     0 24275.3342    0   77 48008.5503 24275.3342  49.4%     -    1s
     0     0 24306.4155    0   77 48008.5503 24306.4155  49.4%     -    1s
     0     0 24309.1648    0   79 48008.5503 24309.1648  49.4%     -    1s
     0     0 24309.8544    0   79 48008.5503 24309.8544  49.4%     -    1s
     0     0 24325.6698    0   73 48008.5503 24325.6698  49.3%     -    1s
H    0     0                    47402.729289 24325.6698  48.7%     -    1s
     0     0 24338.1154    0   75 47402.7293 24338.1154  48.7%     -    1s
     0     0 24338.2982    0   73 47402.7293 24338.2982  48.7%     -    1s
     0     0 24350.4940    0   74 47402.7293 24350.4940  48.6%     -    1s
     0     0 24361.5839    0   76 47402.7293 24361.5839  48.6%     -    1s
     0     0 24368.3012    0   77 47402.7293 24368.3012  48.6%     -    1s
     0     0 24370.6469    0   79 47402.7293 24370.6469  48.6%     -    1s
     0     0 24370.8028    0   79 47402.7293 24370.8028  48.6%     -    1s
     0     0 24391.9574    0   74 47402.7293 24391.9574  48.5%     -    1s
H    0     0                    46721.329193 24391.9574  47.8%     -    1s
     0     0 24396.1847    0   79 46721.3292 24396.1847  47.8%     -    1s
     0     0 24397.3773    0   78 46721.3292 24397.3773  47.8%     -    1s
     0     0 24409.1424    0   75 46721.3292 24409.1424  47.8%     -    1s
     0     0 24411.3381    0   76 46721.3292 24411.3381  47.8%     -    1s
     0     0 24411.6706    0   77 46721.3292 24411.6706  47.8%     -    1s
     0     0 24445.6838    0   77 46721.3292 24445.6838  47.7%     -    1s
     0     0 24447.4227    0   75 46721.3292 24447.4227  47.7%     -    1s
     0     0 24447.6890    0   75 46721.3292 24447.6890  47.7%     -    1s
     0     0 24466.4865    0   73 46721.3292 24466.4865  47.6%     -    1s
     0     0 24467.4631    0   76 46721.3292 24467.4631  47.6%     -    1s
     0     0 24484.3626    0   73 46721.3292 24484.3626  47.6%     -    1s
     0     0 24486.7227    0   74 46721.3292 24486.7227  47.6%     -    1s
     0     0 24486.9098    0   75 46721.3292 24486.9098  47.6%     -    1s
     0     0 24489.4637    0   73 46721.3292 24489.4637  47.6%     -    1s
     0     0 24489.4637    0   73 46721.3292 24489.4637  47.6%     -    2s
H    0     0                    38775.730781 24489.4637  36.8%     -    2s
H    0     0                    29590.200000 24489.4637  17.2%     -    2s
     0     2 24489.4733    0   73 29590.2000 24489.4733  17.2%     -    2s
H   35    35                    29171.571086 24541.4142  15.9%  51.0    3s
H   35    35                    27609.400000 24541.4142  11.1%  51.0    3s
H   52    52                    27574.400000 24541.4142  11.0%  40.9    3s
H   78    78                    27560.400000 24541.4142  11.0%  30.8    3s
H   92    84                    26963.590625 24541.4142  8.98%  30.0    3s
H   93    84                    26791.637500 24541.4142  8.40%  29.7    3s
H   95    86                    26634.137500 24541.4142  7.86%  29.2    3s
H   96    84                    26539.200000 24541.4142  7.53%  28.9    3s
H  104    86                    26517.200000 24568.8405  7.35%  30.4    3s
H  130   112                    26486.200000 24568.8405  7.24%  29.8    3s
H  156   136                    26439.200000 24568.8405  7.07%  29.7    3s
H  162   133                    26062.200000 24568.8405  5.73%  28.9    3s
H  168   130                    25973.200000 24568.8405  5.41%  28.1    3s
   511   367 25759.6346   50   73 25973.2000 24658.7717  5.06%  36.0    5s
H  563   381                    25783.400000 25038.3690  2.89%  32.7    9s
H  563   361                    25439.400000 25038.3690  1.58%  32.7    9s
   568   365 25439.4000   51   55 25439.4000 25038.3690  1.58%  50.4   10s
   888   395 25195.5459   32   69 25439.4000 25148.3474  1.14%  52.3   15s
  1929   289     cutoff   34      25439.4000 25281.0849  0.62%  43.8   20s
  2991   189 25424.3543   46   42 25439.4000 25382.0730  0.23%  37.1   25s

Cutting planes:
  Gomory: 3
  Lift-and-project: 6
  Implied bound: 27
  Projected implied bound: 47
  MIR: 329
  Flow cover: 67
  Relax-and-lift: 5

Explored 3347 nodes (126039 simplex iterations) in 25.75 seconds (25.84 work units)
Thread count was 1 (of 4 available processors)

Solution count 10: 25439.4 25783.4 25973.2 ... 26791.6

Optimal solution found (tolerance 1.00e-06)
Best objective 2.543940000000e+04, best bound 2.543940000000e+04, gap 0.0000%
Obj: 25439.4
